feasible solution found by trivial heuristic after 0.2 seconds, objective value 0.000000e+00
presolving:
(round 1, fast)       35557 del vars, 36618 del conss, 0 add conss, 35336 chg bounds, 17668 chg sides, 0 chg coeffs, 0 upgd conss, 0 impls, 17161 clqs
   (0.3s) running MILP presolver
   (0.4s) MILP presolver (2 rounds): 0 aggregations, 0 fixings, 0 bound changes
(round 2, exhaustive) 35557 del vars, 36820 del conss, 0 add conss, 35336 chg bounds, 17668 chg sides, 0 chg coeffs, 0 upgd conss, 0 impls, 17161 clqs
(round 3, exhaustive) 35557 del vars, 36820 del conss, 0 add conss, 35336 chg bounds, 17668 chg sides, 0 chg coeffs, 17161 upgd conss, 0 impls, 17161 clqs
   (0.5s) probing: 51/631 (8.1%) - 0 fixings, 0 aggregations, 0 implications, 0 bound changes
   (0.5s) probing aborted: 50/50 successive totally useless probings
   (0.5s) symmetry computation started: requiring (bin +, int -, cont +), (fixed: bin -, int +, cont -)
   (0.5s) no symmetry present
presolving (4 rounds: 4 fast, 3 medium, 3 exhaustive):
 35557 deleted vars, 36820 deleted constraints, 0 added constraints, 35336 tightened bounds, 0 added holes, 17668 changed sides, 0 changed coefficients
 0 implications, 17161 cliques
presolved problem has 631 variables (631 bin, 0 int, 0 impl, 0 cont) and 17163 constraints
  17161 constraints of type <setppc>
      2 constraints of type <linear>
Presolving Time: 0.40
transformed 1/1 original solutions to the transformed problem space

 time | node  | left  |LP iter|LP it/n|mem/heur|mdpt |vars |cons |rows |cuts |sepa|confs|strbr|  dualbound   | primalbound  |  gap   | compl. 
p 0.6s|     1 |     0 |     0 |     - |  clique|   0 | 631 |  17k|  17k|   0 |  0 |   0 |   0 | 1.073109e+03 | 2.166280e+01 |4853.69%| unknown
p 0.6s|     1 |     0 |    32 |     - | vbounds|   0 | 631 |  17k|  17k|   0 |  0 |   0 |   0 | 1.073109e+03 | 2.239178e+01 |4692.42%| unknown
  0.7s|     1 |     0 |  1008 |     - |   148M |   0 | 631 |  17k|  17k|   0 |  0 |   0 |   0 | 6.328804e+01 | 2.239178e+01 | 182.64%| unknown
r 0.7s|     1 |     0 |  1008 |     - |randroun|   0 | 631 |  17k|  17k|   0 |  0 |   0 |   0 | 6.328804e+01 | 2.630855e+01 | 140.56%| unknown
i 0.8s|     1 |     0 |  1008 |     - |  oneopt|   0 | 631 |  17k|  17k|   0 |  0 |   0 |   0 | 6.328804e+01 | 4.152678e+01 |  52.40%| unknown
  1.0s|     1 |     0 |  1045 |     - |   150M |   0 | 631 |  17k|  17k|   8 |  1 |   0 |   0 | 6.229184e+01 | 4.152678e+01 |  50.00%| unknown
  1.2s|     1 |     0 |  1074 |     - |   152M |   0 | 631 |  17k|  17k|  16 |  2 |   0 |   0 | 6.158157e+01 | 4.152678e+01 |  48.29%| unknown
  1.4s|     1 |     0 |  1086 |     - |   154M |   0 | 631 |  17k|  17k|  18 |  3 |   0 |   0 | 6.145518e+01 | 4.152678e+01 |  47.99%| unknown
  1.6s|     1 |     0 |  1114 |     - |   156M |   0 | 631 |  17k|  17k|  27 |  5 |   0 |   0 | 6.105292e+01 | 4.152678e+01 |  47.02%| unknown
  1.9s|     1 |     0 |  1157 |     - |   158M |   0 | 631 |  17k|  17k|  34 |  6 |   0 |   0 | 6.064766e+01 | 4.152678e+01 |  46.04%| unknown
  2.1s|     1 |     0 |  1177 |     - |   160M |   0 | 631 |  17k|  17k|  41 |  7 |   0 |   0 | 6.049013e+01 | 4.152678e+01 |  45.67%| unknown
  2.4s|     1 |     0 |  1205 |     - |   162M |   0 | 631 |  17k|  17k|  45 |  8 |   0 |   0 | 6.037447e+01 | 4.152678e+01 |  45.39%| unknown
  2.8s|     1 |     0 |  1234 |     - |   164M |   0 | 631 |  17k|  17k|  51 |  9 |   0 |   0 | 6.024325e+01 | 4.152678e+01 |  45.07%| unknown
  3.3s|     1 |     0 |  1266 |     - |   167M |   0 | 631 |  17k|  17k|  56 | 10 |   0 |   0 | 5.993552e+01 | 4.152678e+01 |  44.33%| unknown
  4.4s|     1 |     0 |  1308 |     - |   170M |   0 | 631 |  17k|  17k|  64 | 11 |   0 |   0 | 5.967794e+01 | 4.152678e+01 |  43.71%| unknown
 time | node  | left  |LP iter|LP it/n|mem/heur|mdpt |vars |cons |rows |cuts |sepa|confs|strbr|  dualbound   | primalbound  |  gap   | compl. 
  4.4s|     1 |     0 |  1340 |     - |   172M |   0 | 631 |  17k|  17k|  69 | 12 |   0 |   0 | 5.957181e+01 | 4.152678e+01 |  43.45%| unknown
  4.4s|     1 |     0 |  1357 |     - |   173M |   0 | 631 |  17k|  17k|  72 | 13 |   0 |   0 | 5.953813e+01 | 4.152678e+01 |  43.37%| unknown
  4.5s|     1 |     0 |  1393 |     - |   175M |   0 | 631 |  17k|  17k|  75 | 14 |   0 |   0 | 5.941319e+01 | 4.152678e+01 |  43.07%| unknown
  4.5s|     1 |     0 |  1409 |     - |   177M |   0 | 631 |  17k|  17k|  77 | 15 |   0 |   0 | 5.938699e+01 | 4.152678e+01 |  43.01%| unknown
  4.5s|     1 |     0 |  1446 |     - |   179M |   0 | 631 |  17k|  17k|  79 | 16 |   0 |   0 | 5.931760e+01 | 4.152678e+01 |  42.84%| unknown
  4.5s|     1 |     0 |  1466 |     - |   181M |   0 | 631 |  17k|  17k|  83 | 17 |   0 |   0 | 5.927844e+01 | 4.152678e+01 |  42.75%| unknown
  4.6s|     1 |     0 |  1487 |     - |   181M |   0 | 631 |  17k|  17k|  86 | 18 |   0 |   0 | 5.923354e+01 | 4.152678e+01 |  42.64%| unknown
  4.6s|     1 |     0 |  1522 |     - |   182M |   0 | 631 |  17k|  17k|  87 | 19 |   0 |   0 | 5.908797e+01 | 4.152678e+01 |  42.29%| unknown
  4.6s|     1 |     0 |  1554 |     - |   184M |   0 | 631 |  17k|  17k|  88 | 20 |   0 |   0 | 5.902165e+01 | 4.152678e+01 |  42.13%| unknown
  4.7s|     1 |     0 |  1590 |     - |   186M |   0 | 631 |  17k|  17k|  93 | 21 |   0 |   0 | 5.894818e+01 | 4.152678e+01 |  41.95%| unknown
  4.7s|     1 |     0 |  1604 |     - |   186M |   0 | 631 |  17k|  17k|  96 | 22 |   0 |   0 | 5.893555e+01 | 4.152678e+01 |  41.92%| unknown
  4.7s|     1 |     0 |  1617 |     - |   186M |   0 | 631 |  17k|  17k|  98 | 23 |   0 |   0 | 5.892486e+01 | 4.152678e+01 |  41.90%| unknown
  4.7s|     1 |     0 |  1621 |     - |   186M |   0 | 631 |  17k|  17k|  99 | 24 |   0 |   0 | 5.892434e+01 | 4.152678e+01 |  41.89%| unknown
  4.7s|     1 |     0 |  1626 |     - |   186M |   0 | 631 |  17k|  17k| 100 | 25 |   0 |   0 | 5.892369e+01 | 4.152678e+01 |  41.89%| unknown
  4.8s|     1 |     0 |  1640 |     - |   187M |   0 | 631 |  17k|  17k| 101 | 26 |   0 |   0 | 5.888232e+01 | 4.152678e+01 |  41.79%| unknown
 time | node  | left  |LP iter|LP it/n|mem/heur|mdpt |vars |cons |rows |cuts |sepa|confs|strbr|  dualbound   | primalbound  |  gap   | compl. 
  4.8s|     1 |     0 |  1649 |     - |   187M |   0 | 631 |  17k|  17k| 102 | 27 |   0 |   0 | 5.887591e+01 | 4.152678e+01 |  41.78%| unknown
d 4.9s|     1 |     0 |  1976 |     - |farkasdi|   0 | 631 |  17k|  17k|   0 | 29 |   0 |   0 | 5.887591e+01 | 4.935279e+01 |  19.30%| unknown
d 4.9s|     1 |     0 |  1983 |     - |farkasdi|   0 | 631 |  17k|  17k|   0 | 29 |   0 |   0 | 5.887591e+01 | 5.074753e+01 |  16.02%| unknown
d 4.9s|     1 |     0 |  1998 |     - |farkasdi|   0 | 631 |  17k|  17k|   0 | 29 |   0 |   0 | 5.887591e+01 | 5.262728e+01 |  11.87%| unknown
L 5.9s|     1 |     0 |  3205 |     - |    rens|   0 | 631 |  17k|  17k| 102 | 29 |  16 |   0 | 5.887591e+01 | 5.450491e+01 |   8.02%| unknown
  6.0s|     1 |     0 |  3205 |     - |   188M |   0 | 631 |  17k|  17k| 102 | 29 |  16 |   0 | 5.887591e+01 | 5.450491e+01 |   8.02%| unknown
  6.1s|     1 |     0 |  3205 |     - |   188M |   0 | 631 |  17k|  17k| 102 | 29 |  16 |   0 | 5.887591e+01 | 5.450491e+01 |   8.02%| unknown
  6.1s|     1 |     0 |  3208 |     - |   188M |   0 | 631 |  17k|  17k| 104 | 30 |  16 |   0 | 5.887564e+01 | 5.450491e+01 |   8.02%| unknown
  6.1s|     1 |     0 |  3212 |     - |   188M |   0 | 631 |  17k|  17k| 106 | 31 |  16 |   0 | 5.887424e+01 | 5.450491e+01 |   8.02%| unknown
  7.6s|     1 |     2 |  3212 |     - |   188M |   0 | 631 |  17k|  17k| 106 | 31 |  16 |  46 | 5.861103e+01 | 5.450491e+01 |   7.53%| unknown
*15.1s|    27 |     8 |  4716 | 118.9 |strongbr|  10 | 631 |  17k|  17k| 109 |  1 | 110 | 436 | 5.851958e+01 | 5.585515e+01 |   4.77%|   7.26%
 22.3s|   100 |    23 |  7101 |  55.3 |   206M |  15 | 631 |  17k|  17k| 129 |  0 | 232 | 702 | 5.824167e+01 | 5.585515e+01 |   4.27%|  17.63%
 26.0s|   200 |    19 |  9470 |  39.4 |   209M |  20 | 631 |  17k|  17k| 134 |  2 | 302 | 889 | 5.797044e+01 | 5.585515e+01 |   3.79%|  28.32%
 36.5s|   300 |    29 | 12198 |  35.4 |   212M |  20 | 631 |  17k|  17k| 150 |  6 | 413 |1083 | 5.792433e+01 | 5.585515e+01 |   3.70%|  41.62%
r37.0s|   322 |    37 | 12409 |  33.6 |shifting|  27 | 631 |  17k|  17k| 152 |  2 | 426 |1110 | 5.792433e+01 | 5.604371e+01 |   3.36%|  41.62%
 time | node  | left  |LP iter|LP it/n|mem/heur|mdpt |vars |cons |rows |cuts |sepa|confs|strbr|  dualbound   | primalbound  |  gap   | compl. 
 46.9s|   400 |    25 | 14689 |  32.7 |   222M |  27 | 631 |  17k|  17k| 178 |  0 | 462 |1219 | 5.775205e+01 | 5.604371e+01 |   3.05%|  50.11%
r56.0s|   452 |    23 | 16351 |  32.7 |shifting|  27 | 631 |  17k|  17k| 207 |  0 | 515 |1306 | 5.769166e+01 | 5.609804e+01 |   2.84%|  56.04%
 62.8s|   500 |    21 | 17620 |  32.1 |   235M |  27 | 631 |  17k|  17k| 232 |  0 | 533 |1359 | 5.763788e+01 | 5.609804e+01 |   2.74%|  58.83%
r64.7s|   525 |    22 | 18282 |  31.8 |ziroundi|  27 | 631 |  17k|  17k| 238 |  1 | 541 |1375 | 5.763788e+01 | 5.621331e+01 |   2.53%|  62.66%
 71.0s|   600 |    15 | 19953 |  30.6 |   238M |  27 | 631 |  17k|  17k| 278 |  1 | 547 |1421 | 5.747879e+01 | 5.621331e+01 |   2.25%|  68.31%
 85.0s|   700 |    13 | 22770 |  30.3 |   242M |  27 | 631 |  17k|  17k| 310 |  0 | 570 |1499 | 5.738075e+01 | 5.621331e+01 |   2.08%|  82.19%
 92.4s|   800 |    13 | 25015 |  29.3 |   244M |  27 | 631 |  17k|  17k| 361 |  0 | 584 |1554 | 5.715045e+01 | 5.621331e+01 |   1.67%|  89.76%
 95.9s|   900 |     6 | 26906 |  28.1 |   244M |  27 | 631 |  17k|  17k| 375 |  1 | 617 |1598 | 5.696572e+01 | 5.621331e+01 |   1.34%|  95.79%

SCIP Status        : problem is solved [optimal solution found]
Solving Time (sec) : 95.96
Solving Nodes      : 914
Primal Bound       : +5.62133088189147e+01 (517 solutions)
Dual Bound         : +5.62133088189147e+01
Gap                : 0.00 %
Solve Status: optimal
Solve Time: 95.98 seconds
